
  32    4
  10   10   10   10

   0   0   0   0   0  16 2 3 4 6 9 10 22 23 24 25 26 27 28 29 30 31 
   4   1   1   1   0   5 21 20 19 18 8 
   5   7   3   3   0   3 14 11 5 
  10   4   5   5   0   2 13 7 
   8   0   5   3   1   2 16 12 
   4   7   2   0   7   2 17 12 
   5   1   1   2   0   1 15 
   9   1   0   6   4   1 11 
   2   6   0   5   2   1 14 
  10   0   5   5   6   1 13 
   9   3   2   2   0   1 32
   4   2   4   0   4   1 32
   8   8   4   0   4   1 32
   9   3   0   6   5   1 32
   9   0   6   2   5   1 32
   8   6   4   0   3   1 32
   8   3   0   3   6   1 32
   6   0   6   5   1   1 32
   4   3   9   5   0   1 32
   7   6   0   3   2   1 32
   9   4   0   4   2   1 32
   2   0   2   3   4   1 32
   8   2   7   0   4   1 32
   4   4   0   4   3   1 32
   8   0   3   6   4   1 32
   4   0   3   4   6   1 32
   3   5   0   3   5   1 32
   7   7   0   8   9   1 32
   9   1   4   6   0   1 32
   5   0   3   5   3   1 32
   4   0   5   1   2   1 32
   0   0   0   0   0   0 
